; benchmark generated from python API
(set-info :status unknown)
(declare-fun strlen_72_64 () (_ BitVec 64))
(declare-fun args_0_8 () (_ BitVec 8))
(declare-fun strlen_74_64 () (_ BitVec 64))
(declare-fun args_1_8 () (_ BitVec 8))
(declare-fun strlen_78_64 () (_ BitVec 64))
(declare-fun args_2_8 () (_ BitVec 8))
(declare-fun sigaction_oldact_174_1216 () (_ BitVec 1216))
(declare-fun sigaction_oldact_183_1216 () (_ BitVec 1216))
(declare-fun sigaction_oldact_195_1216 () (_ BitVec 1216))
(declare-fun sigaction_oldact_217_1216 () (_ BitVec 1216))
(declare-fun sigaction_oldact_266_1216 () (_ BitVec 1216))
(declare-fun sigaction_oldact_366_1216 () (_ BitVec 1216))
(declare-fun sigaction_oldact_542_1216 () (_ BitVec 1216))
(declare-fun sigaction_oldact_942_1216 () (_ BitVec 1216))
(declare-fun sigaction_oldact_1792_1216 () (_ BitVec 1216))
(assert
 (= (_ bv1 64) strlen_72_64))
(assert
 (let (($x69 (= (_ bv0 8) args_0_8)))
 (not $x69)))
(assert
 (let (($x190 (= (_ bv1 64) strlen_74_64)))
 (not $x190)))
(assert
 (let ((?x365 (bvadd (_ bv576460752303357826 64) strlen_74_64)))
 (let (($x347 (= (_ bv0 8) args_1_8)))
 (let ((?x355 (ite $x347 (_ bv576460752303357826 64) (_ bv576460752303357827 64))))
 (= ?x355 ?x365)))))
(assert
 (let (($x369 (= (_ bv0 8) args_2_8)))
 (let ((?x373 (ite $x369 (_ bv576460752303357828 64) (_ bv576460752303357829 64))))
 (let ((?x375 (bvsub ?x373 (_ bv576460752303357828 64))))
 (= ?x375 strlen_78_64)))))
(assert
 (let ((?x1768 ((_ extract 127 120) sigaction_oldact_174_1216)))
 (let ((?x2294 (bvand ?x1768 (_ bv4 8))))
 (and (distinct (_ bv0 8) ?x2294) true))))
(assert
 (let ((?x2603 ((_ extract 127 120) sigaction_oldact_183_1216)))
 (let ((?x2612 (bvand ?x2603 (_ bv4 8))))
 (= (_ bv0 8) ?x2612))))
(assert
 (let ((?x3286 ((_ extract 127 120) sigaction_oldact_195_1216)))
 (let ((?x3306 (bvand ?x3286 (_ bv4 8))))
 (= (_ bv0 8) ?x3306))))
(assert
 (let ((?x4707 ((_ extract 127 120) sigaction_oldact_217_1216)))
 (let ((?x4724 (bvand ?x4707 (_ bv4 8))))
 (and (distinct (_ bv0 8) ?x4724) true))))
(assert
 (let ((?x7924 ((_ extract 127 120) sigaction_oldact_266_1216)))
 (let ((?x7930 (bvand ?x7924 (_ bv4 8))))
 (and (distinct (_ bv0 8) ?x7930) true))))
(assert
 (let ((?x14763 ((_ extract 127 120) sigaction_oldact_366_1216)))
 (let ((?x14788 (bvand ?x14763 (_ bv4 8))))
 (= (_ bv0 8) ?x14788))))
(assert
 (let ((?x27672 ((_ extract 127 120) sigaction_oldact_542_1216)))
 (let ((?x27697 (bvand ?x27672 (_ bv4 8))))
 (and (distinct (_ bv0 8) ?x27697) true))))
(assert
 (let ((?x54151 ((_ extract 127 120) sigaction_oldact_942_1216)))
 (let ((?x9174 (bvand ?x54151 (_ bv4 8))))
 (and (distinct (_ bv0 8) ?x9174) true))))
(assert
 (let ((?x102104 ((_ extract 127 120) sigaction_oldact_1792_1216)))
 (let ((?x102120 (bvand ?x102104 (_ bv4 8))))
 (and (distinct (_ bv0 8) ?x102120) true))))
(maximize sigaction_oldact_942_1216)
(minimize sigaction_oldact_174_1216)
(maximize sigaction_oldact_183_1216)
(maximize sigaction_oldact_195_1216)
(minimize strlen_78_64)
(maximize sigaction_oldact_174_1216)
(minimize sigaction_oldact_942_1216)
(maximize args_1_8)
(minimize sigaction_oldact_1792_1216)
(maximize strlen_72_64)
(check-sat)
(get-objectives)
